p edge 500 162
e 238 314 1.000000
e 192 238 1.000000
e 192 314 1.000000
e 71 137 1.000000
e 71 96 1.000000
e 96 137 1.000000
e 347 444 1.000000
e 4 444 1.000000
e 4 347 1.000000
e 174 258 1.000000
e 174 238 1.000000
e 238 258 1.000000
e 310 460 1.000000
e 42 460 1.000000
e 42 310 1.000000
e 172 284 1.000000
e 172 480 1.000000
e 284 480 1.000000
e 316 359 1.000000
e 21 316 1.000000
e 21 359 1.000000
e 195 373 1.000000
e 87 373 1.000000
e 87 195 1.000000
e 361 485 1.000000
e 232 361 1.000000
e 232 485 1.000000
e 372 488 1.000000
e 217 488 1.000000
e 217 372 1.000000
e 81 87 1.000000
e 81 122 1.000000
e 87 122 1.000000
e 27 57 1.000000
e 27 68 1.000000
e 57 68 1.000000
e 260 447 1.000000
e 260 474 1.000000
e 447 474 1.000000
e 303 397 1.000000
e 33 303 1.000000
e 33 397 1.000000
e 353 405 1.000000
e 197 353 1.000000
e 197 405 1.000000
e 383 455 1.000000
e 53 383 1.000000
e 53 455 1.000000
e 150 471 1.000000
e 105 471 1.000000
e 105 150 1.000000
e 346 372 1.000000
e 115 346 1.000000
e 115 372 1.000000
e 407 456 1.000000
e 216 407 1.000000
e 216 456 1.000000
e 45 396 1.000000
e 45 137 1.000000
e 137 396 1.000000
e 108 467 1.000000
e 108 204 1.000000
e 204 467 1.000000
e 144 175 1.000000
e 144 415 1.000000
e 175 415 1.000000
e 23 103 1.000000
e 23 363 1.000000
e 103 363 1.000000
e 3 454 1.000000
e 3 451 1.000000
e 451 454 1.000000
e 211 459 1.000000
e 29 211 1.000000
e 29 459 1.000000
e 194 434 1.000000
e 194 252 1.000000
e 252 434 1.000000
e 72 122 1.000000
e 13 72 1.000000
e 13 122 1.000000
e 218 377 1.000000
e 218 465 1.000000
e 377 465 1.000000
e 436 494 1.000000
e 58 436 1.000000
e 58 494 1.000000
e 2 306 1.000000
e 2 63 1.000000
e 63 306 1.000000
e 297 392 1.000000
e 102 392 1.000000
e 102 297 1.000000
e 437 459 1.000000
e 104 459 1.000000
e 104 437 1.000000
e 170 457 1.000000
e 5 170 1.000000
e 5 457 1.000000
e 43 69 1.000000
e 43 277 1.000000
e 69 277 1.000000
e 9 470 1.000000
e 9 257 1.000000
e 257 470 1.000000
e 44 294 1.000000
e 44 255 1.000000
e 255 294 1.000000
e 276 472 1.000000
e 102 276 1.000000
e 102 472 1.000000
e 36 216 1.000000
e 36 204 1.000000
e 204 216 1.000000
e 99 328 1.000000
e 99 392 1.000000
e 328 392 1.000000
e 48 359 1.000000
e 48 297 1.000000
e 297 359 1.000000
e 75 89 1.000000
e 75 482 1.000000
e 89 482 1.000000
e 312 369 1.000000
e 312 491 1.000000
e 369 491 1.000000
e 22 28 1.000000
e 22 139 1.000000
e 28 139 1.000000
e 285 350 1.000000
e 285 311 1.000000
e 311 350 1.000000
e 77 437 1.000000
e 77 382 1.000000
e 382 437 1.000000
e 138 378 1.000000
e 138 295 1.000000
e 295 378 1.000000
e 18 63 1.000000
e 18 445 1.000000
e 63 445 1.000000
e 362 487 1.000000
e 207 362 1.000000
e 207 487 1.000000
e 122 464 1.000000
e 83 464 1.000000
e 83 122 1.000000
e 259 313 1.000000
e 23 313 1.000000
e 23 259 1.000000
e 377 433 1.000000
e 188 377 1.000000
e 188 433 1.000000
e 268 346 1.000000
e 268 303 1.000000
e 303 346 1.000000
e 290 397 1.000000
e 290 353 1.000000
e 353 397 1.000000
e 45 445 1.000000
e 45 178 1.000000
e 178 445 1.000000
